presolving:
(round 1, fast)       18 del vars, 22 del conss, 0 add conss, 0 chg bounds, 0 chg sides, 0 chg coeffs, 0 upgd conss, 0 impls, 162 clqs
   (0.0s) running MILP presolver
   (0.0s) MILP presolver found nothing
(round 2, exhaustive) 18 del vars, 22 del conss, 0 add conss, 0 chg bounds, 0 chg sides, 0 chg coeffs, 206 upgd conss, 0 impls, 162 clqs
   (0.7s) probing: 1000/3124 (32.0%) - 0 fixings, 0 aggregations, 263999 implications, 0 bound changes
   (0.7s) probing: 1001/3124 (32.0%) - 0 fixings, 0 aggregations, 264139 implications, 0 bound changes
   (0.7s) probing aborted: 1000/1000 successive useless probings
   (0.7s) symmetry computation started: requiring (bin +, int -, cont +), (fixed: bin -, int +, cont -)
   (0.7s) no symmetry present
presolving (3 rounds: 3 fast, 2 medium, 2 exhaustive):
 18 deleted vars, 22 deleted constraints, 0 added constraints, 0 tightened bounds, 0 added holes, 0 changed sides, 0 changed coefficients
 0 implications, 8026 cliques
presolved problem has 3124 variables (3124 bin, 0 int, 0 impl, 0 cont) and 206 constraints
     44 constraints of type <knapsack>
    162 constraints of type <setppc>
transformed objective value is always integral (scale: 1)
Presolving Time: 0.70

 time | node  | left  |LP iter|LP it/n|mem/heur|mdpt |vars |cons |rows |cuts |sepa|confs|strbr|  dualbound   | primalbound  |  gap   | compl. 
p 0.7s|     1 |     0 |     0 |     - |  clique|   0 |3124 | 206 | 206 |   0 |  0 |   0 |   0 | 0.000000e+00 | 4.303000e+03 |    Inf | unknown
  0.8s|     1 |     0 |   623 |     - |    35M |   0 |3124 | 229 | 206 |   0 |  0 |  23 |   0 | 3.433949e+03 | 4.303000e+03 |  25.31%| unknown
  0.9s|     1 |     0 |   806 |     - |    37M |   0 |3124 | 230 | 230 |  24 |  1 |  24 |   0 | 3.490896e+03 | 4.303000e+03 |  23.26%| unknown
  0.9s|     1 |     0 |   915 |     - |    37M |   0 |3124 | 230 | 251 |  45 |  2 |  24 |   0 | 3.531026e+03 | 4.303000e+03 |  21.86%| unknown
  1.0s|     1 |     0 |  1028 |     - |    38M |   0 |3124 | 230 | 275 |  69 |  3 |  24 |   0 | 3.545808e+03 | 4.303000e+03 |  21.35%| unknown
  1.1s|     1 |     0 |  1160 |     - |    38M |   0 |3124 | 230 | 301 |  95 |  4 |  24 |   0 | 3.555526e+03 | 4.303000e+03 |  21.02%| unknown
  1.1s|     1 |     0 |  1219 |     - |    39M |   0 |3124 | 231 | 320 | 114 |  5 |  25 |   0 | 3.560734e+03 | 4.303000e+03 |  20.85%| unknown
  1.2s|     1 |     0 |  1268 |     - |    41M |   0 |3124 | 231 | 341 | 135 |  6 |  25 |   0 | 3.562681e+03 | 4.303000e+03 |  20.78%| unknown
  1.2s|     1 |     0 |  1385 |     - |    41M |   0 |3124 | 231 | 357 | 151 |  7 |  25 |   0 | 3.568399e+03 | 4.303000e+03 |  20.59%| unknown
  1.3s|     1 |     0 |  1475 |     - |    41M |   0 |3124 | 231 | 373 | 167 |  8 |  25 |   0 | 3.571601e+03 | 4.303000e+03 |  20.48%| unknown
  1.3s|     1 |     0 |  1573 |     - |    41M |   0 |3124 | 231 | 388 | 182 |  9 |  25 |   0 | 3.575545e+03 | 4.303000e+03 |  20.35%| unknown
  1.4s|     1 |     0 |  1652 |     - |    42M |   0 |3124 | 231 | 404 | 198 | 10 |  25 |   0 | 3.579494e+03 | 4.303000e+03 |  20.21%| unknown
  1.5s|     1 |     0 |  1728 |     - |    42M |   0 |3124 | 231 | 417 | 211 | 11 |  25 |   0 | 3.580753e+03 | 4.303000e+03 |  20.17%| unknown
  1.6s|     1 |     0 |  1773 |     - |    42M |   0 |3124 | 231 | 425 | 219 | 12 |  25 |   0 | 3.581208e+03 | 4.303000e+03 |  20.15%| unknown
  1.6s|     1 |     0 |  1835 |     - |    42M |   0 |3124 | 231 | 431 | 225 | 13 |  25 |   0 | 3.582501e+03 | 4.303000e+03 |  20.11%| unknown
 time | node  | left  |LP iter|LP it/n|mem/heur|mdpt |vars |cons |rows |cuts |sepa|confs|strbr|  dualbound   | primalbound  |  gap   | compl. 
  1.7s|     1 |     0 |  1890 |     - |    42M |   0 |3124 | 231 | 442 | 236 | 14 |  25 |   0 | 3.583249e+03 | 4.303000e+03 |  20.09%| unknown
  1.7s|     1 |     0 |  1943 |     - |    42M |   0 |3124 | 231 | 451 | 245 | 15 |  25 |   0 | 3.584377e+03 | 4.303000e+03 |  20.05%| unknown
  1.8s|     1 |     0 |  2072 |     - |    42M |   0 |3124 | 232 | 443 | 253 | 16 |  26 |   0 | 3.589768e+03 | 4.303000e+03 |  19.87%| unknown
  1.8s|     1 |     0 |  2103 |     - |    43M |   0 |3124 | 232 | 450 | 260 | 17 |  26 |   0 | 3.591076e+03 | 4.303000e+03 |  19.82%| unknown
  1.9s|     1 |     0 |  2194 |     - |    43M |   0 |3124 | 232 | 460 | 270 | 18 |  26 |   0 | 3.593821e+03 | 4.303000e+03 |  19.73%| unknown
  1.9s|     1 |     0 |  2218 |     - |    43M |   0 |3124 | 232 | 468 | 278 | 19 |  26 |   0 | 3.594356e+03 | 4.303000e+03 |  19.72%| unknown
  2.0s|     1 |     0 |  2245 |     - |    44M |   0 |3124 | 232 | 472 | 282 | 20 |  26 |   0 | 3.594996e+03 | 4.303000e+03 |  19.69%| unknown
  2.1s|     1 |     0 |  2283 |     - |    44M |   0 |3124 | 232 | 480 | 290 | 21 |  26 |   0 | 3.595604e+03 | 4.303000e+03 |  19.67%| unknown
  2.1s|     1 |     0 |  2322 |     - |    44M |   0 |3124 | 232 | 474 | 294 | 22 |  26 |   0 | 3.596045e+03 | 4.303000e+03 |  19.66%| unknown
  2.2s|     1 |     0 |  2328 |     - |    44M |   0 |3124 | 232 | 482 | 302 | 23 |  26 |   0 | 3.596078e+03 | 4.303000e+03 |  19.66%| unknown
  2.2s|     1 |     0 |  2351 |     - |    44M |   0 |3124 | 232 | 490 | 310 | 24 |  26 |   0 | 3.596250e+03 | 4.303000e+03 |  19.65%| unknown
  2.3s|     1 |     0 |  2393 |     - |    44M |   0 |3124 | 232 | 501 | 321 | 25 |  26 |   0 | 3.597317e+03 | 4.303000e+03 |  19.62%| unknown
  2.3s|     1 |     0 |  2411 |     - |    44M |   0 |3124 | 232 | 505 | 325 | 26 |  26 |   0 | 3.598005e+03 | 4.303000e+03 |  19.59%| unknown
  2.3s|     1 |     0 |  2424 |     - |    44M |   0 |3124 | 232 | 508 | 328 | 27 |  26 |   0 | 3.598117e+03 | 4.303000e+03 |  19.59%| unknown
  2.4s|     1 |     0 |  2444 |     - |    44M |   0 |3124 | 232 | 491 | 330 | 28 |  26 |   0 | 3.598335e+03 | 4.303000e+03 |  19.58%| unknown
 time | node  | left  |LP iter|LP it/n|mem/heur|mdpt |vars |cons |rows |cuts |sepa|confs|strbr|  dualbound   | primalbound  |  gap   | compl. 
  2.4s|     1 |     0 |  2502 |     - |    44M |   0 |3124 | 232 | 493 | 332 | 29 |  26 |   0 | 3.598930e+03 | 4.303000e+03 |  19.56%| unknown
  2.5s|     1 |     0 |  2504 |     - |    44M |   0 |3124 | 232 | 501 | 340 | 30 |  26 |   0 | 3.598932e+03 | 4.303000e+03 |  19.56%| unknown
o 3.3s|     1 |     0 |  5319 |     - |feaspump|   0 |3124 | 236 | 501 | 340 | 32 |  34 |   0 | 3.598932e+03 | 3.675000e+03 |   2.11%| unknown
L 3.4s|     1 |     0 |  5632 |     - |    rens|   0 |3124 | 236 | 501 | 340 | 32 |  34 |   0 | 3.598932e+03 | 3.664000e+03 |   1.81%| unknown
  3.5s|     1 |     0 |  5632 |     - |    45M |   0 |3124 | 236 | 501 | 340 | 32 |  34 |   0 | 3.598932e+03 | 3.664000e+03 |   1.81%| unknown
  3.5s|     1 |     0 |  5632 |     - |    45M |   0 |3124 | 236 | 501 | 340 | 32 |  34 |   0 | 3.598932e+03 | 3.664000e+03 |   1.81%| unknown
  3.5s|     1 |     0 |  5840 |     - |    45M |   0 |3124 | 234 | 506 | 345 | 33 |  34 |   0 | 3.603055e+03 | 3.664000e+03 |   1.69%| unknown
  3.5s|     1 |     0 |  5840 |     - |    45M |   0 |3124 | 234 | 506 | 345 | 33 |  34 |   0 | 3.603055e+03 | 3.664000e+03 |   1.69%| unknown
  3.5s|     1 |     0 |  5874 |     - |    45M |   0 |3124 | 234 | 508 | 347 | 34 |  34 |   0 | 3.603803e+03 | 3.664000e+03 |   1.67%| unknown
  3.6s|     1 |     0 |  5874 |     - |    45M |   0 |3124 | 234 | 508 | 347 | 34 |  34 |   0 | 3.603803e+03 | 3.664000e+03 |   1.67%| unknown
(run 1, node 1) restarting after 842 global fixings of integer variables

(restart) converted 113 cuts from the global cut pool into linear constraints

presolving:
(round 1, fast)       842 del vars, 7 del conss, 0 add conss, 0 chg bounds, 0 chg sides, 236 chg coeffs, 0 upgd conss, 0 impls, 5900 clqs
   (3.6s) running MILP presolver
   (3.6s) MILP presolver found nothing
(round 2, exhaustive) 842 del vars, 8 del conss, 0 add conss, 0 chg bounds, 1 chg sides, 236 chg coeffs, 0 upgd conss, 0 impls, 5900 clqs
(round 3, exhaustive) 842 del vars, 8 del conss, 0 add conss, 0 chg bounds, 1 chg sides, 236 chg coeffs, 112 upgd conss, 0 impls, 5900 clqs
(round 4, fast)       842 del vars, 8 del conss, 0 add conss, 0 chg bounds, 1 chg sides, 259 chg coeffs, 112 upgd conss, 0 impls, 5901 clqs
(round 5, medium)     842 del vars, 115 del conss, 132 add conss, 0 chg bounds, 1 chg sides, 259 chg coeffs, 112 upgd conss, 0 impls, 5901 clqs
(round 6, exhaustive) 842 del vars, 115 del conss, 132 add conss, 0 chg bounds, 1 chg sides, 269 chg coeffs, 112 upgd conss, 0 impls, 5901 clqs
(round 7, exhaustive) 842 del vars, 116 del conss, 132 add conss, 0 chg bounds, 1 chg sides, 269 chg coeffs, 112 upgd conss, 0 impls, 5901 clqs
presolving (8 rounds: 8 fast, 6 medium, 5 exhaustive):
 842 deleted vars, 116 deleted constraints, 132 added constraints, 0 tightened bounds, 0 added holes, 1 changed sides, 270 changed coefficients
 0 implications, 5901 cliques
presolved problem has 2282 variables (2282 bin, 0 int, 0 impl, 0 cont) and 362 constraints
     58 constraints of type <knapsack>
    289 constraints of type <setppc>
      1 constraints of type <linear>
     14 constraints of type <logicor>
transformed objective value is always integral (scale: 1)
Presolving Time: 0.74
transformed 3/3 original solutions to the transformed problem space

 time | node  | left  |LP iter|LP it/n|mem/heur|mdpt |vars |cons |rows |cuts |sepa|confs|strbr|  dualbound   | primalbound  |  gap   | compl. 
  3.7s|     1 |     0 |  6954 |     - |    45M |   0 |2282 | 362 | 343 |   0 |  0 |  34 |   0 | 3.603803e+03 | 3.664000e+03 |   1.67%| unknown
  3.7s|     1 |     0 |  6954 |     - |    45M |   0 |2282 | 362 | 343 |   0 |  0 |  34 |   0 | 3.603803e+03 | 3.664000e+03 |   1.67%| unknown
  3.7s|     1 |     0 |  7053 |     - |    45M |   0 |2282 | 362 | 363 |  20 |  1 |  34 |   0 | 3.603803e+03 | 3.664000e+03 |   1.67%| unknown
  3.7s|     1 |     0 |  7053 |     - |    45M |   0 |2282 | 362 | 363 |  20 |  1 |  34 |   0 | 3.603803e+03 | 3.664000e+03 |   1.67%| unknown
  3.8s|     1 |     0 |  7219 |     - |    45M |   0 |2282 | 362 | 375 |  32 |  2 |  34 |   0 | 3.603803e+03 | 3.664000e+03 |   1.67%| unknown
  3.8s|     1 |     0 |  7219 |     - |    45M |   0 |2282 | 362 | 375 |  32 |  2 |  34 |   0 | 3.603803e+03 | 3.664000e+03 |   1.67%| unknown
  3.8s|     1 |     0 |  7297 |     - |    45M |   0 |2282 | 362 | 390 |  47 |  3 |  34 |   0 | 3.603803e+03 | 3.664000e+03 |   1.67%| unknown
  3.9s|     1 |     0 |  7297 |     - |    45M |   0 |2282 | 362 | 390 |  47 |  3 |  34 |   0 | 3.603803e+03 | 3.664000e+03 |   1.67%| unknown
  3.9s|     1 |     0 |  7395 |     - |    45M |   0 |2282 | 362 | 403 |  60 |  4 |  34 |   0 | 3.603917e+03 | 3.664000e+03 |   1.67%| unknown
  3.9s|     1 |     0 |  7395 |     - |    45M |   0 |2282 | 362 | 403 |  60 |  4 |  34 |   0 | 3.603917e+03 | 3.664000e+03 |   1.67%| unknown
  4.0s|     1 |     0 |  7458 |     - |    45M |   0 |2282 | 362 | 416 |  73 |  5 |  34 |   0 | 3.604667e+03 | 3.664000e+03 |   1.65%| unknown
  4.0s|     1 |     0 |  7458 |     - |    45M |   0 |2282 | 362 | 416 |  73 |  5 |  34 |   0 | 3.604667e+03 | 3.664000e+03 |   1.65%| unknown
  4.0s|     1 |     0 |  7506 |     - |    45M |   0 |2282 | 362 | 424 |  81 |  6 |  34 |   0 | 3.605241e+03 | 3.664000e+03 |   1.63%| unknown
  4.0s|     1 |     0 |  7506 |     - |    45M |   0 |2282 | 363 | 424 |  81 |  6 |  35 |   0 | 3.605241e+03 | 3.664000e+03 |   1.63%| unknown
  4.0s|     1 |     0 |  7531 |     - |    45M |   0 |2282 | 363 | 432 |  89 |  7 |  35 |   0 | 3.605485e+03 | 3.664000e+03 |   1.62%| unknown
 time | node  | left  |LP iter|LP it/n|mem/heur|mdpt |vars |cons |rows |cuts |sepa|confs|strbr|  dualbound   | primalbound  |  gap   | compl. 
  4.1s|     1 |     0 |  7531 |     - |    45M |   0 |2282 | 363 | 432 |  89 |  7 |  35 |   0 | 3.605485e+03 | 3.664000e+03 |   1.62%| unknown
  4.1s|     1 |     0 |  7548 |     - |    45M |   0 |2282 | 363 | 439 |  96 |  8 |  35 |   0 | 3.605724e+03 | 3.664000e+03 |   1.62%| unknown
  4.1s|     1 |     0 |  7548 |     - |    45M |   0 |2282 | 363 | 439 |  96 |  8 |  35 |   0 | 3.605724e+03 | 3.664000e+03 |   1.62%| unknown
  4.2s|     1 |     0 |  7602 |     - |    45M |   0 |2282 | 363 | 446 | 103 |  9 |  35 |   0 | 3.606411e+03 | 3.664000e+03 |   1.60%| unknown
  4.2s|     1 |     0 |  7602 |     - |    45M |   0 |2282 | 363 | 446 | 103 |  9 |  35 |   0 | 3.606411e+03 | 3.664000e+03 |   1.60%| unknown
  4.2s|     1 |     0 |  7629 |     - |    45M |   0 |2282 | 363 | 450 | 107 | 10 |  35 |   0 | 3.606673e+03 | 3.664000e+03 |   1.59%| unknown
  4.2s|     1 |     0 |  7629 |     - |    45M |   0 |2282 | 363 | 450 | 107 | 10 |  35 |   0 | 3.606673e+03 | 3.664000e+03 |   1.59%| unknown
  4.3s|     1 |     0 |  7643 |     - |    45M |   0 |2282 | 363 | 453 | 110 | 11 |  35 |   0 | 3.606849e+03 | 3.664000e+03 |   1.58%| unknown
  4.3s|     1 |     0 |  7643 |     - |    45M |   0 |2282 | 363 | 453 | 110 | 11 |  35 |   0 | 3.606849e+03 | 3.664000e+03 |   1.58%| unknown
  4.3s|     1 |     0 |  7645 |     - |    45M |   0 |2282 | 363 | 454 | 111 | 12 |  35 |   0 | 3.606852e+03 | 3.664000e+03 |   1.58%| unknown
  4.4s|     1 |     0 |  7655 |     - |    46M |   0 |2282 | 363 | 456 | 113 | 13 |  35 |   0 | 3.606909e+03 | 3.664000e+03 |   1.58%| unknown
  4.4s|     1 |     0 |  7655 |     - |    46M |   0 |2282 | 363 | 456 | 113 | 13 |  35 |   0 | 3.606909e+03 | 3.664000e+03 |   1.58%| unknown
  4.4s|     1 |     0 |  7682 |     - |    46M |   0 |2282 | 363 | 410 | 116 | 14 |  35 |   0 | 3.607130e+03 | 3.664000e+03 |   1.58%| unknown
  4.4s|     1 |     0 |  7682 |     - |    46M |   0 |2282 | 363 | 410 | 116 | 14 |  35 |   0 | 3.607130e+03 | 3.664000e+03 |   1.58%| unknown
  4.5s|     1 |     0 |  7716 |     - |    46M |   0 |2282 | 363 | 417 | 123 | 15 |  35 |   0 | 3.607215e+03 | 3.664000e+03 |   1.57%| unknown
 time | node  | left  |LP iter|LP it/n|mem/heur|mdpt |vars |cons |rows |cuts |sepa|confs|strbr|  dualbound   | primalbound  |  gap   | compl. 
  4.5s|     1 |     0 |  7716 |     - |    46M |   0 |2282 | 363 | 417 | 123 | 15 |  35 |   0 | 3.607215e+03 | 3.664000e+03 |   1.57%| unknown
  4.5s|     1 |     0 |  7749 |     - |    46M |   0 |2282 | 363 | 421 | 127 | 16 |  35 |   0 | 3.607749e+03 | 3.664000e+03 |   1.56%| unknown
  4.5s|     1 |     0 |  7749 |     - |    46M |   0 |2282 | 363 | 421 | 127 | 16 |  35 |   0 | 3.607749e+03 | 3.664000e+03 |   1.56%| unknown
  4.6s|     1 |     0 |  7758 |     - |    46M |   0 |2282 | 363 | 423 | 129 | 17 |  35 |   0 | 3.607867e+03 | 3.664000e+03 |   1.56%| unknown
  4.6s|     1 |     0 |  7758 |     - |    46M |   0 |2282 | 364 | 423 | 129 | 17 |  36 |   0 | 3.607867e+03 | 3.664000e+03 |   1.56%| unknown
  4.6s|     1 |     0 |  7769 |     - |    46M |   0 |2282 | 364 | 426 | 132 | 18 |  36 |   0 | 3.607912e+03 | 3.664000e+03 |   1.55%| unknown
  4.6s|     1 |     0 |  7769 |     - |    46M |   0 |2282 | 364 | 426 | 132 | 18 |  36 |   0 | 3.607912e+03 | 3.664000e+03 |   1.55%| unknown
  4.6s|     1 |     0 |  7791 |     - |    46M |   0 |2282 | 364 | 429 | 135 | 19 |  36 |   0 | 3.608067e+03 | 3.664000e+03 |   1.55%| unknown
  4.6s|     1 |     0 |  7791 |     - |    46M |   0 |2282 | 364 | 429 | 135 | 19 |  36 |   0 | 3.608067e+03 | 3.664000e+03 |   1.55%| unknown
  4.7s|     1 |     0 |  7833 |     - |    46M |   0 |2282 | 364 | 413 | 142 | 20 |  36 |   0 | 3.608315e+03 | 3.664000e+03 |   1.54%| unknown
  4.7s|     1 |     0 |  7833 |     - |    46M |   0 |2282 | 364 | 413 | 142 | 20 |  36 |   0 | 3.608315e+03 | 3.664000e+03 |   1.54%| unknown
  4.7s|     1 |     0 |  7845 |     - |    46M |   0 |2282 | 364 | 420 | 149 | 21 |  36 |   0 | 3.608355e+03 | 3.664000e+03 |   1.54%| unknown
  4.7s|     1 |     0 |  7845 |     - |    46M |   0 |2282 | 364 | 420 | 149 | 21 |  36 |   0 | 3.608355e+03 | 3.664000e+03 |   1.54%| unknown
  4.8s|     1 |     0 |  7847 |     - |    46M |   0 |2282 | 364 | 440 | 169 | 22 |  36 |   0 | 3.608362e+03 | 3.664000e+03 |   1.54%| unknown
  4.8s|     1 |     0 |  7865 |     - |    46M |   0 |2282 | 364 | 441 | 170 | 23 |  36 |   0 | 3.608483e+03 | 3.664000e+03 |   1.54%| unknown
 time | node  | left  |LP iter|LP it/n|mem/heur|mdpt |vars |cons |rows |cuts |sepa|confs|strbr|  dualbound   | primalbound  |  gap   | compl. 
  4.8s|     1 |     0 |  7865 |     - |    46M |   0 |2282 | 364 | 441 | 170 | 23 |  36 |   0 | 3.608483e+03 | 3.664000e+03 |   1.54%| unknown
  4.9s|     1 |     0 |  7872 |     - |    46M |   0 |2282 | 362 | 443 | 172 | 24 |  36 |   0 | 3.608486e+03 | 3.664000e+03 |   1.54%| unknown
  5.6s|     1 |     2 |  8066 |     - |    46M |   0 |2282 | 362 | 443 | 172 | 26 |  36 |  20 | 3.614078e+03 | 3.664000e+03 |   1.38%| unknown
(run 2, node 1) restarting after 221 global fixings of integer variables

(restart) converted 119 cuts from the global cut pool into linear constraints

presolving:
(round 1, fast)       221 del vars, 0 del conss, 0 add conss, 0 chg bounds, 0 chg sides, 28 chg coeffs, 0 upgd conss, 0 impls, 5402 clqs
(round 2, exhaustive) 221 del vars, 0 del conss, 0 add conss, 0 chg bounds, 0 chg sides, 28 chg coeffs, 118 upgd conss, 0 impls, 5402 clqs
(round 3, fast)       221 del vars, 6 del conss, 0 add conss, 0 chg bounds, 0 chg sides, 28 chg coeffs, 118 upgd conss, 0 impls, 5402 clqs
(round 4, medium)     221 del vars, 21 del conss, 13 add conss, 0 chg bounds, 0 chg sides, 28 chg coeffs, 118 upgd conss, 0 impls, 5402 clqs
(round 5, exhaustive) 221 del vars, 21 del conss, 13 add conss, 0 chg bounds, 0 chg sides, 46 chg coeffs, 118 upgd conss, 0 impls, 5402 clqs
(round 6, exhaustive) 221 del vars, 22 del conss, 13 add conss, 0 chg bounds, 0 chg sides, 46 chg coeffs, 118 upgd conss, 0 impls, 5402 clqs
presolving (7 rounds: 7 fast, 5 medium, 4 exhaustive):
 221 deleted vars, 22 deleted constraints, 13 added constraints, 0 tightened bounds, 0 added holes, 0 changed sides, 46 changed coefficients
 0 implications, 5402 cliques
presolved problem has 2061 variables (2061 bin, 0 int, 0 impl, 0 cont) and 472 constraints
     97 constraints of type <knapsack>
    361 constraints of type <setppc>
      2 constraints of type <linear>
     12 constraints of type <logicor>
transformed objective value is always integral (scale: 1)
Presolving Time: 0.78
transformed 4/4 original solutions to the transformed problem space

 time | node  | left  |LP iter|LP it/n|mem/heur|mdpt |vars |cons |rows |cuts |sepa|confs|strbr|  dualbound   | primalbound  |  gap   | compl. 
  5.9s|     1 |     0 | 10825 |     - |    47M |   0 |2061 | 472 | 454 |   0 |  0 |  36 |  20 | 3.614078e+03 | 3.664000e+03 |   1.38%| unknown
  5.9s|     1 |     0 | 10825 |     - |    47M |   0 |2061 | 472 | 454 |   0 |  0 |  36 |  20 | 3.614078e+03 | 3.664000e+03 |   1.38%| unknown
  5.9s|     1 |     0 | 10852 |     - |    48M |   0 |2061 | 472 | 459 |   5 |  1 |  36 |  20 | 3.614078e+03 | 3.664000e+03 |   1.38%| unknown
  5.9s|     1 |     0 | 10852 |     - |    48M |   0 |2061 | 472 | 459 |   5 |  1 |  36 |  20 | 3.614078e+03 | 3.664000e+03 |   1.38%| unknown
  6.0s|     1 |     0 | 10870 |     - |    48M |   0 |2061 | 472 | 464 |  10 |  2 |  36 |  20 | 3.614078e+03 | 3.664000e+03 |   1.38%| unknown
  6.0s|     1 |     0 | 10870 |     - |    48M |   0 |2061 | 472 | 464 |  10 |  2 |  36 |  20 | 3.614078e+03 | 3.664000e+03 |   1.38%| unknown
  6.0s|     1 |     0 | 10893 |     - |    48M |   0 |2061 | 472 | 466 |  12 |  3 |  36 |  20 | 3.614078e+03 | 3.664000e+03 |   1.38%| unknown
  6.0s|     1 |     0 | 10893 |     - |    48M |   0 |2061 | 472 | 466 |  12 |  3 |  36 |  20 | 3.614078e+03 | 3.664000e+03 |   1.38%| unknown
  6.1s|     1 |     0 | 10912 |     - |    48M |   0 |2061 | 472 | 471 |  17 |  4 |  36 |  20 | 3.614078e+03 | 3.664000e+03 |   1.38%| unknown
  6.1s|     1 |     0 | 10912 |     - |    48M |   0 |2061 | 472 | 471 |  17 |  4 |  36 |  20 | 3.614078e+03 | 3.664000e+03 |   1.38%| unknown
  6.2s|     1 |     0 | 10929 |     - |    48M |   0 |2061 | 472 | 473 |  19 |  5 |  36 |  20 | 3.614078e+03 | 3.664000e+03 |   1.38%| unknown
  6.2s|     1 |     0 | 10929 |     - |    48M |   0 |2061 | 472 | 473 |  19 |  5 |  36 |  20 | 3.614078e+03 | 3.664000e+03 |   1.38%| unknown
  6.2s|     1 |     0 | 10961 |     - |    48M |   0 |2061 | 472 | 476 |  22 |  6 |  36 |  20 | 3.614078e+03 | 3.664000e+03 |   1.38%| unknown
  6.2s|     1 |     0 | 10961 |     - |    48M |   0 |2061 | 473 | 476 |  22 |  6 |  37 |  20 | 3.614078e+03 | 3.664000e+03 |   1.38%| unknown
  6.3s|     1 |     0 | 10981 |     - |    48M |   0 |2061 | 473 | 478 |  24 |  7 |  37 |  20 | 3.614078e+03 | 3.664000e+03 |   1.38%| unknown
 time | node  | left  |LP iter|LP it/n|mem/heur|mdpt |vars |cons |rows |cuts |sepa|confs|strbr|  dualbound   | primalbound  |  gap   | compl. 
  6.3s|     1 |     0 | 10981 |     - |    48M |   0 |2061 | 473 | 478 |  24 |  7 |  37 |  20 | 3.614078e+03 | 3.664000e+03 |   1.38%| unknown
  6.3s|     1 |     0 | 10997 |     - |    48M |   0 |2061 | 473 | 481 |  27 |  8 |  37 |  20 | 3.614078e+03 | 3.664000e+03 |   1.38%| unknown
  6.3s|     1 |     0 | 10997 |     - |    48M |   0 |2061 | 473 | 481 |  27 |  8 |  37 |  20 | 3.614078e+03 | 3.664000e+03 |   1.38%| unknown
  6.3s|     1 |     0 | 11044 |     - |    48M |   0 |2061 | 473 | 482 |  28 |  9 |  37 |  20 | 3.614078e+03 | 3.664000e+03 |   1.38%| unknown
  6.4s|     1 |     0 | 11067 |     - |    48M |   0 |2061 | 473 | 399 |  29 | 10 |  37 |  20 | 3.614078e+03 | 3.664000e+03 |   1.38%| unknown
  6.4s|     1 |     0 | 11067 |     - |    48M |   0 |2061 | 473 | 399 |  29 | 10 |  37 |  20 | 3.614078e+03 | 3.664000e+03 |   1.38%| unknown
  6.4s|     1 |     0 | 11093 |     - |    48M |   0 |2061 | 473 | 401 |  31 | 11 |  37 |  20 | 3.614078e+03 | 3.664000e+03 |   1.38%| unknown
  6.4s|     1 |     0 | 11093 |     - |    48M |   0 |2061 | 473 | 401 |  31 | 11 |  37 |  20 | 3.614078e+03 | 3.664000e+03 |   1.38%| unknown
L 6.6s|     1 |     0 | 11999 |     - |    rens|   0 |2061 | 479 | 401 |  31 | 11 |  43 |  20 | 3.614078e+03 | 3.660000e+03 |   1.27%| unknown
  6.7s|     1 |     0 | 11999 |     - |    48M |   0 |2061 | 479 | 401 |  31 | 11 |  43 |  20 | 3.614078e+03 | 3.660000e+03 |   1.27%| unknown
  6.7s|     1 |     0 | 11999 |     - |    48M |   0 |2061 | 479 | 401 |  31 | 11 |  43 |  20 | 3.614078e+03 | 3.660000e+03 |   1.27%| unknown
  6.7s|     1 |     0 | 12010 |     - |    48M |   0 |2061 | 479 | 402 |  32 | 12 |  43 |  20 | 3.614078e+03 | 3.660000e+03 |   1.27%| unknown
  6.7s|     1 |     0 | 12010 |     - |    48M |   0 |2061 | 479 | 402 |  32 | 12 |  43 |  20 | 3.614078e+03 | 3.660000e+03 |   1.27%| unknown
  6.7s|     1 |     0 | 12018 |     - |    48M |   0 |2061 | 479 | 403 |  33 | 13 |  43 |  20 | 3.614078e+03 | 3.660000e+03 |   1.27%| unknown
  7.3s|     1 |     2 | 12018 |     - |    48M |   0 |2061 | 479 | 403 |  33 | 13 |  43 |  39 | 3.614168e+03 | 3.660000e+03 |   1.27%| unknown
 time | node  | left  |LP iter|LP it/n|mem/heur|mdpt |vars |cons |rows |cuts |sepa|confs|strbr|  dualbound   | primalbound  |  gap   | compl. 
 14.2s|   100 |    83 | 17000 |  91.7 |    58M |  19 |2061 | 500 | 393 | 294 |  2 |  64 | 902 | 3.620855e+03 | 3.660000e+03 |   1.08%|  14.63%
 16.6s|   200 |   175 | 21786 |  69.9 |    64M |  22 |2061 | 507 | 394 | 534 |  2 |  71 |1049 | 3.622177e+03 | 3.660000e+03 |   1.04%|  16.13%
 18.7s|   300 |   265 | 25919 |  60.4 |    65M |  22 |2061 | 548 | 404 | 817 |  1 | 112 |1138 | 3.622237e+03 | 3.660000e+03 |   1.04%|  16.20%
 20.5s|   400 |   357 | 30126 |  55.8 |    65M |  22 |2061 | 551 | 397 |1114 |  4 | 115 |1202 | 3.622990e+03 | 3.660000e+03 |   1.02%|  17.06%
 21.8s|   500 |   453 | 34077 |  52.6 |    66M |  24 |2061 | 560 | 395 |1310 |  1 | 124 |1226 | 3.623301e+03 | 3.660000e+03 |   1.01%|  17.41%
 23.2s|   600 |   549 | 38175 |  50.6 |    66M |  27 |2061 | 566 | 415 |1489 |  5 | 130 |1265 | 3.624118e+03 | 3.660000e+03 |   0.99%|  18.34%
 25.6s|   700 |   649 | 48790 |  58.6 |    67M |  27 |2061 | 583 | 391 |1840 |  1 | 148 |1283 | 3.625179e+03 | 3.660000e+03 |   0.96%|  19.55%
 28.1s|   800 |   749 | 58599 |  63.5 |    68M |  27 |2061 | 603 | 395 |2143 |  1 | 168 |1312 | 3.626060e+03 | 3.660000e+03 |   0.94%|  20.55%
 30.0s|   900 |   849 | 67768 |  66.6 |    68M |  27 |2061 | 617 | 403 |2319 |  1 | 182 |1330 | 3.626443e+03 | 3.660000e+03 |   0.93%|  20.98%
 31.5s|  1000 |   949 | 75669 |  67.9 |    68M |  27 |2061 | 641 | 405 |2460 |  2 | 206 |1347 | 3.626489e+03 | 3.660000e+03 |   0.92%|  21.04%
 32.8s|  1100 |  1049 | 83680 |  69.0 |    68M |  31 |2061 | 645 | 398 |2540 |  1 | 210 |1365 | 3.626752e+03 | 3.660000e+03 |   0.92%|  21.34%
 34.5s|  1200 |  1149 | 90888 |  69.2 |    69M |  31 |2061 | 653 | 397 |2745 |  1 | 221 |1374 | 3.626968e+03 | 3.660000e+03 |   0.91%|  21.58%
 35.5s|  1300 |  1249 | 95326 |  67.3 |    70M |  31 |2061 | 661 | 410 |2770 |  1 | 229 |1386 | 3.626968e+03 | 3.660000e+03 |   0.91%|  21.58%
*35.7s|  1307 |   701 | 95823 |  67.3 |strongbr|  31 |2061 | 665 | 408 |2795 |  1 | 234 |1388 | 3.626970e+03 | 3.637000e+03 |   0.28%|  48.65%
 36.3s|  1400 |   750 | 98258 |  64.6 |    70M |  31 |2061 | 538 | 400 |2892 |  2 | 283 |1398 | 3.627242e+03 | 3.637000e+03 |   0.27%|  49.24%
 time | node  | left  |LP iter|LP it/n|mem/heur|mdpt |vars |cons |rows |cuts |sepa|confs|strbr|  dualbound   | primalbound  |  gap   | compl. 
 37.0s|  1500 |   804 |100787 |  62.0 |    70M |  31 |2061 | 577 | 404 |2986 |  1 | 326 |1403 | 3.627321e+03 | 3.637000e+03 |   0.27%|  49.71%
 37.7s|  1600 |   846 |103198 |  59.6 |    71M |  31 |2061 | 593 | 404 |3063 |  2 | 343 |1406 | 3.627569e+03 | 3.637000e+03 |   0.26%|  50.19%
*37.8s|  1607 |   173 |103642 |  59.6 |    LP  |  31 |2061 | 593 | 409 |3079 |  2 | 343 |1409 | 3.627569e+03 | 3.632000e+03 |   0.12%|  57.40%
 38.2s|  1700 |   158 |105217 |  57.3 |    71M |  31 |2061 | 609 | 423 |3114 |  0 | 363 |1410 | 3.627611e+03 | 3.632000e+03 |   0.12%|  63.08%
 38.6s|  1800 |   166 |106695 |  54.9 |    71M |  31 |2061 | 633 | 397 |3154 |  4 | 390 |1417 | 3.627691e+03 | 3.632000e+03 |   0.12%|  66.91%
 39.2s|  1900 |   166 |108555 |  53.0 |    71M |  31 |2061 | 675 | 407 |3178 |  2 | 438 |1436 | 3.627930e+03 | 3.632000e+03 |   0.11%|  70.49%
 39.5s|  2000 |   166 |109853 |  51.0 |    71M |  31 |2061 | 685 | 414 |3193 |  1 | 456 |1437 | 3.628157e+03 | 3.632000e+03 |   0.11%|  72.63%
 39.9s|  2100 |   170 |111627 |  49.4 |    72M |  31 |2061 | 691 | 411 |3207 |  0 | 468 |1439 | 3.628382e+03 | 3.632000e+03 |   0.10%|  74.68%
 40.3s|  2200 |   160 |113307 |  48.0 |    72M |  31 |2061 | 719 | 410 |3232 |  2 | 504 |1441 | 3.628713e+03 | 3.632000e+03 |   0.09%|  78.30%
 40.8s|  2300 |   130 |114852 |  46.6 |    72M |  31 |2061 | 734 | 449 |3275 |  0 | 529 |1452 | 3.628755e+03 | 3.632000e+03 |   0.09%|  83.86%
 41.2s|  2400 |   114 |116412 |  45.3 |    72M |  31 |2061 | 745 | 417 |3294 |  0 | 548 |1468 | 3.628896e+03 | 3.632000e+03 |   0.09%|  86.60%
 41.5s|  2500 |    87 |117698 |  44.0 |    72M |  31 |2061 | 750 | 428 |3306 |  0 | 555 |1470 | 3.629127e+03 | 3.632000e+03 |   0.08%|  90.77%
 41.9s|  2600 |    63 |118986 |  42.8 |    72M |  31 |2061 | 747 | 454 |3312 |  2 | 558 |1473 | 3.629279e+03 | 3.632000e+03 |   0.07%|  93.81%
 42.2s|  2700 |    19 |120127 |  41.6 |    72M |  31 |2061 | 736 | 437 |3312 |  0 | 558 |1473 | 3.629649e+03 | 3.632000e+03 |   0.06%|  97.30%

SCIP Status        : problem is solved [optimal solution found]
Solving Time (sec) : 42.50
Solving Nodes      : 2765 (total of 2767 nodes in 3 runs)
Primal Bound       : +3.63200000000000e+03 (15 solutions)
Dual Bound         : +3.63200000000000e+03
Gap                : 0.00 %
Solve Status: optimal
Solve Time: 42.50 seconds
